NAME : XML100_3321_15
DIMENSION : 101
NB_CLUSTERS : 4
CLUSTERING_ALG : KMedoids
CLUSTERING_PARAMS : k(3)
CLUSTERS
1 0
2 1 2 5 6 7 8 11 12 13 15 16 19 21 25 27 28 29 30 32 33 35 37 40 47 50 51 53 55 57 58 59 63 64 68 71 72 76 82 84 86 87 88 90 92 96 97
3 3 4 14 22 31 34 36 38 39 42 44 46 49 52 56 60 62 66 67 69 73 75 77 78 81 83 91 95 99 100
4 9 10 17 18 20 23 24 26 41 43 45 48 54 61 65 70 74 79 80 85 89 93 94 98
EOF